Features/ForMiniZinc/benchmark_puzzles/benchmarks5x5/65/puzzle14.dzn
S = 5;
start = [|0,0,1,21,7,0,0,22,0,0,0,0,0,23,0,0,0,15,0,0,18,0,0,3,8|
4,19,11,6,0,0,0,0,0,0,0,25,0,0,15,18,7,0,0,5,0,0,0,0,0|
0,0,0,15,0,0,18,0,0,24,0,6,0,8,0,0,0,14,16,0,0,0,0,21,23|
0,0,0,24,0,0,0,21,9,0,16,0,0,18,20,0,0,0,0,0,0,0,0,0,12|
0,22,0,0,18,0,5,19,0,0,0,0,13,0,0,0,0,0,0,0,9,0,0,0,0|
6,11,0,0,0,0,0,13,22,0,0,3,20,0,0,0,0,4,0,0,0,0,8,0,15|
0,0,0,1,0,0,12,0,0,0,0,0,0,0,0,0,0,0,0,0,0,21,0,0,0|
0,0,0,0,16,0,0,0,23,0,0,0,0,0,0,0,22,8,0,15,0,0,0,0,0|
0,0,0,0,24,0,0,0,0,0,0,0,0,0,0,0,18,23,0,0,0,0,0,0,0|
0,0,0,0,0,20,15,16,0,0,0,14,0,12,8,3,24,0,0,0,7,0,0,0,19|
0,4,0,7,15,0,0,23,5,0,6,20,0,24,0,25,0,12,0,8,3,0,11,0,0|
0,0,0,0,0,22,13,0,0,0,3,0,0,0,16,0,0,11,24,0,8,0,0,6,0|
0,1,0,0,0,0,0,0,0,0,0,12,15,19,0,0,0,0,22,0,0,0,14,0,21|
19,2,0,0,3,0,0,0,8,0,0,18,0,0,21,23,0,6,0,20,0,12,0,24,9|
24,0,20,0,0,0,0,0,2,0,0,0,0,0,0,4,0,0,0,0,5,0,19,7,17|
0,0,0,0,19,0,11,20,0,0,0,17,0,0,6,0,0,0,0,0,0,14,0,0,0|
25,0,0,0,11,16,0,0,0,0,18,0,0,7,0,0,0,0,21,0,0,1,0,0,0|
0,7,23,0,4,24,0,0,0,22,0,0,16,0,11,0,0,17,0,18,0,3,15,0,0|
0,8,0,20,0,0,0,5,0,0,19,0,4,0,0,0,0,0,0,0,0,0,0,0,6|
0,0,0,0,6,0,19,25,0,0,20,0,0,14,0,9,3,0,7,4,12,0,0,0,0|
22,9,0,0,20,21,14,0,0,0,0,0,25,6,0,0,12,0,18,0,0,2,0,19,0|
0,24,16,18,0,0,0,0,0,12,0,0,0,0,14,11,0,0,0,13,0,25,23,0,0|
0,6,0,11,2,13,0,0,0,18,23,21,0,0,0,0,0,0,3,0,0,0,0,0,0|
0,0,3,0,0,0,0,1,7,0,0,0,0,0,0,0,4,22,0,0,21,13,0,0,0|
0,0,0,4,1,0,0,0,0,0,0,13,7,0,2,21,20,0,0,24,0,0,18,0,3|];